job_count = 30 ;
duration = [|28, 18, 8, 7|9, 18, 9, 4|9, 19, 15, 7|34, 18, 5, 9|22, 28, 5, 2|27, 5, 12, 6|23, 24, 19, 3|36, 9, 8, 1|29, 25, 16, 7|34, 9, 14, 8|30, 24, 18, 1|34, 26, 4, 8|37, 20, 16, 6|30, 23, 18, 6|17, 17, 3, 5|36, 27, 8, 6|30, 9, 16, 7|31, 25, 19, 1|8, 8, 6, 8|32, 24, 8, 3|32, 9, 7, 4|13, 12, 15, 3|34, 27, 17, 6|38, 24, 19, 3|29, 11, 10, 8|19, 21, 4, 6|10, 20, 15, 9|19, 21, 8, 4|26, 15, 16, 6|17, 17, 19, 2|] ;
machine_count = 4 ;
cost = [|18, 22, 36, 53|13, 26, 52, 66|14, 20, 47, 44|19, 31, 59, 63|17, 26, 46, 52|13, 30, 37, 57|11, 23, 55, 68|12, 36, 38, 40|15, 20, 45, 56|19, 25, 35, 61|14, 39, 58, 72|11, 30, 58, 71|17, 20, 53, 77|11, 23, 57, 43|13, 28, 52, 72|13, 21, 55, 66|11, 35, 35, 67|15, 25, 43, 49|15, 30, 37, 74|12, 33, 41, 75|11, 22, 34, 61|12, 30, 34, 58|11, 37, 59, 76|15, 26, 57, 76|18, 31, 41, 40|19, 29, 52, 54|17, 28, 46, 74|16, 38, 40, 46|17, 30, 32, 79|17, 37, 57, 55|] ;
deadline = [62, 62, 62, 62, 62, 62, 62, 62, 62, 62, 62, 62, 62, 62, 62, 62, 62, 62, 62, 62, 62, 62, 62, 62, 62, 62, 62, 62, 62, 62] ;
release = [0, 0, 0, 0, 0, 0, 0, 0, 0, 0, 0, 0, 0, 0, 0, 0, 0, 0, 0, 0, 0, 0, 0, 0, 0, 0, 0, 0, 0, 0] ;
resource = [|1, 1, 1, 1|5, 5, 5, 5|6, 6, 6, 6|2, 2, 2, 2|2, 2, 2, 2|6, 6, 6, 6|3, 3, 3, 3|7, 7, 7, 7|4, 4, 4, 4|9, 9, 9, 9|8, 8, 8, 8|4, 4, 4, 4|4, 4, 4, 4|7, 7, 7, 7|7, 7, 7, 7|2, 2, 2, 2|1, 1, 1, 1|7, 7, 7, 7|7, 7, 7, 7|6, 6, 6, 6|7, 7, 7, 7|9, 9, 9, 9|7, 7, 7, 7|9, 9, 9, 9|3, 3, 3, 3|7, 7, 7, 7|8, 8, 8, 8|8, 8, 8, 8|5, 5, 5, 5|4, 4, 4, 4|] ;
capacities = [10, 10, 10, 10] ;
